494256
494256
494256
494256
491622
491622
491622
491622
491622
478718
463689
463689
463689
463689
445360
445360
445360
445360
443742
443742
443742
443742
443742
443742
443742
443742
443742
438445
432849
432849
415538
415538
415538
415538
415538
415538
415538
415538
415538
415538
415538
415538
415538
410064
388514
388514
388514
388514
388514
388514
388514
388514
388514
388514
388514
388514
388514
388514
388514
388514
388514
388514
388514
388514
388514
388514
388514
388514
381537
381537
381537
381537
381537
381537
381537
381537
381537
381537
381537
381537
381537
381537
381537
381537
381537
381537
381537
381537
381537
381537
381537
381537
381537
381537
381537
372740
372740
372740
372740
372740
